33D32945 STP File, STP Format Version 1.0

SECTION Comment
Name    "Series C" 
Creator "A. M. Costa" 
Format  "Z.H. Fu and J. K. Hao"
Remark  "Sparse graph with random weights"
#TotalEdgeCost 13882
#BudgetFraction 20
END 

SECTION Graph 
Nodes 500 
Edges 2500 
Root 1
Budget 694
HopLimit 5
E 1 4 2 
E 1 16 10 
E 1 80 8 
E 1 297 10 
E 1 398 10 
E 1 408 6 
E 2 68 1 
E 2 72 7 
E 2 94 1 
E 2 172 5 
E 2 251 8 
E 2 310 7 
E 2 325 4 
E 2 389 5 
E 2 462 1 
E 3 39 7 
E 3 128 6 
E 3 150 8 
E 3 204 8 
E 3 266 5 
E 3 369 9 
E 3 427 10 
E 3 428 7 
E 3 489 5 
E 4 68 3 
E 4 91 6 
E 4 101 5 
E 4 144 1 
E 4 168 4 
E 4 171 8 
E 4 197 6 
E 4 203 10 
E 4 213 10 
E 4 230 4 
E 4 345 7 
E 4 346 3 
E 5 110 10 
E 5 144 7 
E 5 279 7 
E 5 306 10 
E 5 307 5 
E 5 403 9 
E 5 423 1 
E 5 434 2 
E 5 435 3 
E 5 500 1 
E 6 51 9 
E 6 65 10 
E 6 106 8 
E 6 135 2 
E 6 161 8 
E 6 259 8 
E 6 369 3 
E 6 453 9 
E 6 483 10 
E 7 20 7 
E 7 38 2 
E 7 52 10 
E 7 73 4 
E 7 103 7 
E 7 259 1 
E 7 344 9 
E 7 473 1 
E 8 36 2 
E 8 90 5 
E 8 127 7 
E 8 171 6 
E 8 175 4 
E 8 184 4 
E 8 199 4 
E 8 228 10 
E 8 229 2 
E 8 234 1 
E 8 303 1 
E 8 369 2 
E 8 385 10 
E 8 460 10 
E 9 32 8 
E 9 112 4 
E 9 145 4 
E 9 217 3 
E 9 459 8 
E 10 143 2 
E 10 164 5 
E 10 240 2 
E 10 296 8 
E 10 334 8 
E 10 369 5 
E 10 486 6 
E 11 72 5 
E 11 80 5 
E 11 81 10 
E 11 105 4 
E 11 179 7 
E 11 192 3 
E 11 221 8 
E 11 270 6 
E 11 284 1 
E 11 304 10 
E 11 321 10 
E 11 354 10 
E 11 357 4 
E 11 424 3 
E 11 481 5 
E 11 496 5 
E 12 15 3 
E 12 22 8 
E 12 94 6 
E 12 98 4 
E 12 155 8 
E 12 157 4 
E 12 179 7 
E 12 223 3 
E 12 258 5 
E 12 339 4 
E 12 374 8 
E 12 398 4 
E 12 499 10 
E 13 15 8 
E 13 105 10 
E 13 146 4 
E 13 178 7 
E 13 251 4 
E 13 320 9 
E 13 328 8 
E 13 348 2 
E 13 393 6 
E 13 442 8 
E 13 494 7 
E 14 44 8 
E 14 49 9 
E 14 65 7 
E 14 87 8 
E 14 101 8 
E 14 255 8 
E 14 294 3 
E 14 326 1 
E 14 392 6 
E 14 416 8 
E 14 472 5 
E 14 475 8 
E 14 482 1 
E 15 21 3 
E 15 48 3 
E 15 78 9 
E 15 90 10 
E 15 117 9 
E 15 140 2 
E 15 338 10 
E 15 347 1 
E 15 379 9 
E 15 429 3 
E 15 431 6 
E 15 480 10 
E 15 488 2 
E 16 37 5 
E 16 101 4 
E 16 158 9 
E 16 162 9 
E 16 191 8 
E 16 222 2 
E 16 279 4 
E 16 302 7 
E 16 333 3 
E 16 363 5 
E 16 386 8 
E 16 451 3 
E 16 471 1 
E 17 44 3 
E 17 60 9 
E 17 181 9 
E 17 313 8 
E 17 388 9 
E 17 402 10 
E 17 427 5 
E 17 481 10 
E 18 157 5 
E 18 319 1 
E 18 345 8 
E 18 427 7 
E 19 81 9 
E 19 92 6 
E 19 123 3 
E 19 177 1 
E 19 305 2 
E 19 337 4 
E 19 419 4 
E 19 457 1 
E 19 494 2 
E 20 57 9 
E 20 221 3 
E 20 249 7 
E 20 393 6 
E 20 417 1 
E 20 460 4 
E 20 488 1 
E 21 33 10 
E 21 96 7 
E 21 107 6 
E 21 155 8 
E 21 208 2 
E 21 231 3 
E 21 259 8 
E 21 305 1 
E 21 337 9 
E 22 86 5 
E 22 96 2 
E 22 98 8 
E 22 147 4 
E 22 148 3 
E 22 165 3 
E 22 166 7 
E 22 178 9 
E 22 196 6 
E 22 247 9 
E 22 277 1 
E 22 325 8 
E 22 412 5 
E 23 55 10 
E 23 200 6 
E 23 313 7 
E 23 331 10 
E 23 388 1 
E 23 401 3 
E 23 483 8 
E 24 27 1 
E 24 45 8 
E 24 61 8 
E 24 209 10 
E 24 233 2 
E 24 251 2 
E 24 314 7 
E 24 315 8 
E 24 396 2 
E 24 460 5 
E 24 487 5 
E 24 491 2 
E 25 47 10 
E 25 80 10 
E 25 173 2 
E 25 176 9 
E 25 241 6 
E 25 248 4 
E 25 284 5 
E 25 483 8 
E 25 499 2 
E 26 42 9 
E 26 85 1 
E 26 100 5 
E 26 228 4 
E 26 244 8 
E 26 274 2 
E 26 280 9 
E 26 321 4 
E 26 461 8 
E 26 466 7 
E 27 39 9 
E 27 105 8 
E 27 107 7 
E 27 172 2 
E 27 374 9 
E 27 471 8 
E 28 51 9 
E 28 81 1 
E 28 128 3 
E 28 153 10 
E 28 294 5 
E 28 305 1 
E 28 321 10 
E 28 341 4 
E 28 383 3 
E 29 111 8 
E 29 122 9 
E 29 187 5 
E 29 198 6 
E 29 227 5 
E 29 253 10 
E 29 254 2 
E 29 321 6 
E 29 361 10 
E 29 371 1 
E 29 379 7 
E 29 389 10 
E 29 405 10 
E 29 478 9 
E 30 91 2 
E 30 115 7 
E 30 137 1 
E 30 190 6 
E 30 198 5 
E 30 261 1 
E 30 296 6 
E 30 320 9 
E 30 366 8 
E 30 383 8 
E 30 436 10 
E 31 74 2 
E 31 91 4 
E 31 262 8 
E 31 352 3 
E 31 388 9 
E 32 89 4 
E 32 178 3 
E 32 220 5 
E 32 230 1 
E 32 246 3 
E 32 282 8 
E 32 421 6 
E 32 433 6 
E 32 437 5 
E 32 461 4 
E 33 67 4 
E 33 82 7 
E 33 130 4 
E 33 187 7 
E 33 500 10 
E 34 72 4 
E 34 106 2 
E 34 160 10 
E 34 195 8 
E 34 250 2 
E 34 300 4 
E 34 344 1 
E 34 416 10 
E 34 477 2 
E 35 60 8 
E 35 104 9 
E 35 192 7 
E 35 195 4 
E 35 298 10 
E 35 380 9 
E 35 465 2 
E 35 482 9 
E 36 101 6 
E 36 145 9 
E 36 179 9 
E 36 184 1 
E 36 223 5 
E 36 254 9 
E 36 256 1 
E 36 288 8 
E 36 350 9 
E 36 377 1 
E 36 395 5 
E 36 425 9 
E 36 430 9 
E 36 469 4 
E 37 73 3 
E 37 110 5 
E 37 119 7 
E 37 224 3 
E 37 259 10 
E 37 273 8 
E 37 317 7 
E 37 332 7 
E 37 382 2 
E 37 439 9 
E 38 62 3 
E 38 136 7 
E 38 158 7 
E 38 170 9 
E 38 171 6 
E 38 177 6 
E 38 305 2 
E 38 389 2 
E 38 450 3 
E 38 494 10 
E 39 73 10 
E 39 125 7 
E 39 169 10 
E 39 297 8 
E 39 381 2 
E 39 458 5 
E 40 166 2 
E 40 169 3 
E 40 279 10 
E 40 291 4 
E 40 322 7 
E 40 364 10 
E 40 376 1 
E 40 412 3 
E 40 413 7 
E 40 419 4 
E 40 497 4 
E 41 74 6 
E 41 79 2 
E 41 84 4 
E 41 128 6 
E 41 182 9 
E 41 402 6 
E 41 419 8 
E 42 52 6 
E 42 197 9 
E 42 306 5 
E 42 316 8 
E 42 320 8 
E 42 394 4 
E 43 44 1 
E 43 76 6 
E 43 123 7 
E 43 154 10 
E 43 193 3 
E 43 237 8 
E 43 249 6 
E 44 53 3 
E 44 54 1 
E 44 98 3 
E 44 103 10 
E 44 113 4 
E 44 119 6 
E 44 130 3 
E 44 151 10 
E 44 172 6 
E 44 198 5 
E 44 250 6 
E 44 276 4 
E 44 328 8 
E 44 401 1 
E 44 419 8 
E 44 443 9 
E 44 499 9 
E 45 93 4 
E 45 127 5 
E 45 138 7 
E 45 173 4 
E 45 186 3 
E 45 193 1 
E 45 207 3 
E 45 211 10 
E 45 301 1 
E 45 321 8 
E 45 334 7 
E 45 353 8 
E 46 101 5 
E 46 155 7 
E 46 251 7 
E 46 254 6 
E 46 423 10 
E 46 453 7 
E 47 58 5 
E 47 116 8 
E 47 128 4 
E 47 170 5 
E 47 310 2 
E 47 346 5 
E 47 389 8 
E 47 447 4 
E 47 466 3 
E 48 225 2 
E 48 226 7 
E 48 285 6 
E 48 290 9 
E 48 325 6 
E 48 480 7 
E 49 77 6 
E 49 95 9 
E 49 148 8 
E 49 171 9 
E 49 253 2 
E 49 256 9 
E 49 273 8 
E 49 287 7 
E 49 335 1 
E 49 366 6 
E 49 371 2 
E 49 387 9 
E 49 497 2 
E 50 53 8 
E 50 92 1 
E 50 165 9 
E 50 233 10 
E 50 252 10 
E 50 328 8 
E 50 337 9 
E 50 340 1 
E 50 358 6 
E 50 363 6 
E 50 479 9 
E 51 103 10 
E 51 144 2 
E 51 164 10 
E 51 171 9 
E 51 199 3 
E 51 213 4 
E 51 220 6 
E 51 295 2 
E 51 396 4 
E 51 465 1 
E 52 81 6 
E 52 129 9 
E 52 134 5 
E 52 155 6 
E 52 170 10 
E 52 279 2 
E 52 340 6 
E 52 341 1 
E 52 356 8 
E 52 384 3 
E 52 493 3 
E 53 262 9 
E 53 396 4 
E 53 399 2 
E 53 411 1 
E 53 476 1 
E 53 485 2 
E 53 486 4 
E 53 490 3 
E 54 96 4 
E 54 238 6 
E 54 260 6 
E 54 267 5 
E 54 310 5 
E 54 451 10 
E 54 487 7 
E 55 63 7 
E 55 73 7 
E 55 136 6 
E 55 175 3 
E 55 214 8 
E 55 302 3 
E 55 319 10 
E 55 337 10 
E 55 351 6 
E 55 374 8 
E 55 399 4 
E 55 432 5 
E 55 451 5 
E 56 112 10 
E 56 168 2 
E 56 237 1 
E 56 238 3 
E 56 267 5 
E 56 383 5 
E 56 449 2 
E 57 65 2 
E 57 66 7 
E 57 102 10 
E 57 370 2 
E 57 373 1 
E 58 168 6 
E 58 173 10 
E 58 178 4 
E 58 181 9 
E 58 224 9 
E 58 291 1 
E 58 321 3 
E 58 359 10 
E 58 406 4 
E 58 457 8 
E 58 475 1 
E 58 477 10 
E 59 123 8 
E 59 294 3 
E 59 355 10 
E 59 364 4 
E 59 405 3 
E 59 425 4 
E 59 445 2 
E 59 454 2 
E 59 474 9 
E 59 475 6 
E 60 95 1 
E 60 107 7 
E 60 109 3 
E 60 175 5 
E 60 203 8 
E 60 208 7 
E 60 239 2 
E 60 256 6 
E 60 282 5 
E 60 306 8 
E 60 400 4 
E 60 428 8 
E 60 441 9 
E 61 107 1 
E 61 112 4 
E 61 113 6 
E 61 253 8 
E 61 386 2 
E 61 399 5 
E 61 461 7 
E 61 462 7 
E 62 110 6 
E 62 141 9 
E 62 284 10 
E 62 316 5 
E 62 371 5 
E 62 393 1 
E 62 409 2 
E 62 437 10 
E 62 500 9 
E 63 149 1 
E 63 264 8 
E 63 267 5 
E 63 355 4 
E 63 373 5 
E 63 381 5 
E 63 446 4 
E 63 462 1 
E 64 84 10 
E 64 218 8 
E 64 234 6 
E 64 289 5 
E 64 372 9 
E 64 402 3 
E 64 420 10 
E 64 423 10 
E 64 485 5 
E 64 495 5 
E 65 84 5 
E 65 106 10 
E 65 143 6 
E 65 158 10 
E 65 201 5 
E 65 206 2 
E 65 261 9 
E 65 419 2 
E 65 461 10 
E 66 134 3 
E 66 153 1 
E 66 180 10 
E 66 255 10 
E 66 309 3 
E 66 353 10 
E 66 371 10 
E 66 415 9 
E 66 420 10 
E 66 423 6 
E 66 454 5 
E 67 89 8 
E 67 91 2 
E 67 96 2 
E 67 101 2 
E 67 209 10 
E 67 213 6 
E 67 332 3 
E 67 366 5 
E 67 408 10 
E 68 94 5 
E 68 145 8 
E 68 220 1 
E 68 251 8 
E 68 268 7 
E 68 279 1 
E 68 388 2 
E 68 433 10 
E 68 468 10 
E 69 94 4 
E 69 146 10 
E 69 160 3 
E 69 183 2 
E 69 213 9 
E 69 289 10 
E 69 348 8 
E 69 361 7 
E 69 392 5 
E 70 75 5 
E 70 119 6 
E 70 163 3 
E 70 217 10 
E 70 231 10 
E 70 446 3 
E 70 459 5 
E 70 460 4 
E 70 468 10 
E 71 180 7 
E 71 182 8 
E 71 389 8 
E 71 397 5 
E 71 447 8 
E 71 476 5 
E 72 148 2 
E 72 220 10 
E 72 285 3 
E 72 291 4 
E 72 330 1 
E 72 495 9 
E 72 498 7 
E 73 151 3 
E 73 183 10 
E 73 262 9 
E 73 298 1 
E 73 307 4 
E 73 315 7 
E 73 339 2 
E 73 361 1 
E 73 454 9 
E 73 459 1 
E 73 476 2 
E 74 76 2 
E 74 97 7 
E 74 131 2 
E 74 197 10 
E 74 235 8 
E 74 236 2 
E 74 255 3 
E 74 264 8 
E 74 297 9 
E 74 318 8 
E 74 336 9 
E 74 348 2 
E 74 426 9 
E 74 432 5 
E 75 84 7 
E 75 129 3 
E 75 205 7 
E 75 215 8 
E 75 294 1 
E 75 373 9 
E 75 380 5 
E 75 391 4 
E 75 412 7 
E 75 431 7 
E 76 149 9 
E 76 196 10 
E 76 198 1 
E 76 264 8 
E 76 285 2 
E 76 302 7 
E 76 338 1 
E 76 352 6 
E 76 377 6 
E 76 410 2 
E 76 414 6 
E 76 448 10 
E 76 482 5 
E 77 106 7 
E 77 221 5 
E 77 298 5 
E 77 468 7 
E 77 499 7 
E 78 133 1 
E 78 196 2 
E 78 232 9 
E 78 262 5 
E 78 265 10 
E 78 283 1 
E 78 347 4 
E 78 399 5 
E 78 408 1 
E 78 422 1 
E 79 112 1 
E 79 199 4 
E 79 266 9 
E 79 294 7 
E 79 355 8 
E 79 377 7 
E 79 428 9 
E 79 441 6 
E 80 193 9 
E 80 412 5 
E 81 83 3 
E 81 118 8 
E 81 143 10 
E 81 144 8 
E 81 161 4 
E 81 167 6 
E 81 222 3 
E 81 226 5 
E 81 232 7 
E 81 255 9 
E 81 304 3 
E 81 310 5 
E 81 336 5 
E 81 353 8 
E 81 372 4 
E 81 378 3 
E 82 186 1 
E 82 214 9 
E 82 399 5 
E 82 436 3 
E 82 446 9 
E 82 451 7 
E 83 114 1 
E 83 129 10 
E 83 148 3 
E 83 196 2 
E 83 200 1 
E 83 223 7 
E 83 242 9 
E 83 347 3 
E 83 351 10 
E 83 445 8 
E 84 143 1 
E 84 254 3 
E 84 292 2 
E 84 324 3 
E 84 343 9 
E 84 431 5 
E 84 440 8 
E 84 494 7 
E 85 196 7 
E 85 198 4 
E 85 275 7 
E 85 288 2 
E 85 345 7 
E 86 101 6 
E 86 130 5 
E 86 137 6 
E 86 180 9 
E 86 258 8 
E 86 304 2 
E 86 358 2 
E 86 390 7 
E 86 417 3 
E 86 474 4 
E 86 487 4 
E 87 94 5 
E 87 145 4 
E 87 172 9 
E 87 192 8 
E 87 247 6 
E 87 250 6 
E 87 287 1 
E 87 291 5 
E 87 294 8 
E 87 322 1 
E 87 332 5 
E 87 336 1 
E 88 112 2 
E 88 210 8 
E 88 237 6 
E 88 274 7 
E 88 299 3 
E 88 310 4 
E 88 474 9 
E 88 480 9 
E 89 100 4 
E 89 103 1 
E 89 154 4 
E 89 174 6 
E 89 203 3 
E 89 286 9 
E 89 296 5 
E 89 333 9 
E 89 364 5 
E 90 101 6 
E 90 228 4 
E 90 268 8 
E 90 350 5 
E 90 399 7 
E 90 475 1 
E 91 157 7 
E 91 169 2 
E 91 237 5 
E 91 279 10 
E 91 300 5 
E 91 353 2 
E 91 371 2 
E 91 409 9 
E 91 415 4 
E 91 473 5 
E 92 161 2 
E 92 297 8 
E 92 333 6 
E 92 350 1 
E 92 410 8 
E 92 440 2 
E 92 452 4 
E 92 482 2 
E 93 126 5 
E 93 143 6 
E 93 157 9 
E 93 159 1 
E 93 238 10 
E 93 243 10 
E 93 312 5 
E 93 403 6 
E 94 203 6 
E 94 275 2 
E 94 345 1 
E 94 384 7 
E 95 132 2 
E 95 227 9 
E 95 288 9 
E 95 351 1 
E 95 371 9 
E 95 396 2 
E 95 407 2 
E 95 472 4 
E 96 105 2 
E 96 155 7 
E 96 251 6 
E 96 294 8 
E 96 342 6 
E 96 372 3 
E 96 451 10 
E 97 179 7 
E 97 335 6 
E 97 369 9 
E 97 409 2 
E 97 414 8 
E 97 417 9 
E 97 466 9 
E 98 113 10 
E 98 127 9 
E 98 158 10 
E 98 212 2 
E 98 232 9 
E 98 337 3 
E 98 358 1 
E 98 392 8 
E 98 457 10 
E 98 465 8 
E 98 478 4 
E 99 329 3 
E 99 330 8 
E 99 341 8 
E 99 413 1 
E 99 478 2 
E 100 242 6 
E 100 283 2 
E 100 297 5 
E 100 304 9 
E 100 309 6 
E 100 353 10 
E 100 378 6 
E 100 450 9 
E 100 488 3 
E 101 130 6 
E 101 227 8 
E 101 245 2 
E 101 264 3 
E 101 321 6 
E 101 341 3 
E 101 352 1 
E 101 370 6 
E 101 412 6 
E 101 424 2 
E 101 436 9 
E 101 451 2 
E 102 158 1 
E 102 168 8 
E 102 196 9 
E 102 259 10 
E 102 401 10 
E 102 410 8 
E 102 436 9 
E 102 500 1 
E 103 106 6 
E 103 119 7 
E 103 135 7 
E 103 205 7 
E 103 237 1 
E 103 249 2 
E 103 301 1 
E 103 391 8 
E 103 460 7 
E 105 110 3 
E 105 216 7 
E 105 302 1 
E 105 316 9 
E 105 321 9 
E 105 380 7 
E 105 402 3 
E 105 487 5 
E 105 498 7 
E 106 109 10 
E 106 126 7 
E 106 165 4 
E 106 285 6 
E 106 389 4 
E 106 398 8 
E 106 427 2 
E 107 245 5 
E 107 249 10 
E 107 268 2 
E 107 344 3 
E 107 404 8 
E 107 422 6 
E 107 435 5 
E 107 473 10 
E 107 482 5 
E 107 486 2 
E 107 498 5 
E 108 227 4 
E 108 269 3 
E 108 284 1 
E 108 364 5 
E 109 174 9 
E 109 475 10 
E 109 488 10 
E 110 135 10 
E 110 145 7 
E 110 190 10 
E 110 214 8 
E 110 233 10 
E 110 267 2 
E 110 335 4 
E 110 343 6 
E 110 352 7 
E 110 405 8 
E 111 113 10 
E 111 122 5 
E 111 154 6 
E 111 175 7 
E 111 242 10 
E 111 261 9 
E 111 276 6 
E 111 289 8 
E 111 339 10 
E 111 449 1 
E 111 467 9 
E 112 140 5 
E 112 215 9 
E 112 242 7 
E 112 266 3 
E 112 277 2 
E 112 290 4 
E 112 342 10 
E 112 377 5 
E 112 432 4 
E 113 138 8 
E 113 176 6 
E 113 223 2 
E 113 310 9 
E 113 476 5 
E 113 490 5 
E 114 181 5 
E 114 233 10 
E 114 372 8 
E 114 405 4 
E 114 425 8 
E 114 429 7 
E 114 438 8 
E 115 141 1 
E 115 201 9 
E 115 261 1 
E 115 311 4 
E 115 313 5 
E 115 331 1 
E 115 434 6 
E 115 449 5 
E 116 179 5 
E 116 265 7 
E 116 290 4 
E 116 307 5 
E 116 320 3 
E 116 373 8 
E 116 391 8 
E 116 409 8 
E 116 432 8 
E 116 479 9 
E 117 133 2 
E 117 209 7 
E 117 253 6 
E 117 280 8 
E 117 311 8 
E 117 316 9 
E 117 344 6 
E 117 359 9 
E 117 369 7 
E 117 402 3 
E 117 411 7 
E 117 445 9 
E 117 489 4 
E 118 222 5 
E 118 280 2 
E 118 316 3 
E 118 351 5 
E 118 387 2 
E 118 483 6 
E 119 135 2 
E 119 149 5 
E 119 202 9 
E 119 222 7 
E 119 223 2 
E 119 269 3 
E 119 332 2 
E 119 338 7 
E 119 392 6 
E 119 442 8 
E 119 448 1 
E 120 134 5 
E 120 196 8 
E 120 215 9 
E 120 345 2 
E 120 374 2 
E 120 437 9 
E 120 445 1 
E 121 225 10 
E 121 229 4 
E 121 266 10 
E 121 277 4 
E 121 278 2 
E 121 295 6 
E 121 337 2 
E 121 407 6 
E 121 435 5 
E 121 459 5 
E 122 242 6 
E 122 248 1 
E 122 289 1 
E 122 295 5 
E 122 337 5 
E 122 342 4 
E 123 191 7 
E 123 214 10 
E 123 218 9 
E 123 286 9 
E 123 291 2 
E 123 390 9 
E 124 162 7 
E 124 183 6 
E 124 213 1 
E 124 272 5 
E 124 291 5 
E 124 308 9 
E 124 352 3 
E 124 383 10 
E 124 388 1 
E 124 419 2 
E 124 464 7 
E 125 281 10 
E 125 383 1 
E 125 459 6 
E 126 139 10 
E 126 151 3 
E 126 155 4 
E 126 169 3 
E 126 224 1 
E 126 301 10 
E 126 371 8 
E 126 443 7 
E 127 174 3 
E 127 185 6 
E 127 206 10 
E 127 224 9 
E 127 232 7 
E 127 283 4 
E 127 288 5 
E 127 383 2 
E 127 388 5 
E 127 478 10 
E 127 479 5 
E 127 483 4 
E 128 177 5 
E 128 259 5 
E 128 287 7 
E 128 288 4 
E 128 468 2 
E 128 470 7 
E 129 280 1 
E 129 303 1 
E 129 322 2 
E 129 354 5 
E 129 423 5 
E 129 499 5 
E 130 162 1 
E 130 191 9 
E 130 316 9 
E 130 380 4 
E 130 384 4 
E 130 418 1 
E 130 497 4 
E 131 228 9 
E 131 263 9 
E 131 328 2 
E 131 467 9 
E 132 183 6 
E 132 292 1 
E 132 319 10 
E 132 354 5 
E 133 142 9 
E 133 214 6 
E 133 351 1 
E 133 393 6 
E 133 407 1 
E 133 462 5 
E 133 475 4 
E 134 181 4 
E 134 235 8 
E 134 252 5 
E 134 257 8 
E 134 288 10 
E 134 317 2 
E 134 495 5 
E 135 169 4 
E 135 175 3 
E 135 217 7 
E 135 267 5 
E 135 288 9 
E 135 296 9 
E 135 319 6 
E 136 197 10 
E 136 282 5 
E 136 421 8 
E 136 451 7 
E 136 464 3 
E 136 495 2 
E 136 500 2 
E 137 143 5 
E 137 175 6 
E 137 177 10 
E 137 189 3 
E 137 326 9 
E 137 412 7 
E 137 421 9 
E 137 477 3 
E 138 141 2 
E 138 201 3 
E 138 338 5 
E 138 347 10 
E 139 164 9 
E 139 179 4 
E 139 185 2 
E 139 389 5 
E 139 457 2 
E 139 476 4 
E 139 477 7 
E 140 162 2 
E 140 191 5 
E 140 202 4 
E 140 210 8 
E 140 215 4 
E 140 291 6 
E 140 367 4 
E 140 384 9 
E 140 409 8 
E 140 417 10 
E 140 443 8 
E 140 484 9 
E 141 193 2 
E 141 247 4 
E 141 256 3 
E 141 338 5 
E 141 386 5 
E 142 146 6 
E 142 179 8 
E 142 183 3 
E 142 228 5 
E 142 321 7 
E 142 398 3 
E 142 426 2 
E 143 149 3 
E 143 156 2 
E 143 162 6 
E 143 174 9 
E 143 190 6 
E 143 300 8 
E 144 226 9 
E 144 289 6 
E 144 349 8 
E 144 355 2 
E 144 371 2 
E 144 440 6 
E 145 152 6 
E 145 158 4 
E 145 307 10 
E 145 329 8 
E 145 372 10 
E 145 384 9 
E 145 391 6 
E 146 156 2 
E 146 174 10 
E 146 224 1 
E 146 228 5 
E 146 276 4 
E 146 315 3 
E 146 367 5 
E 146 441 5 
E 146 475 9 
E 147 160 9 
E 147 167 1 
E 147 201 8 
E 147 255 5 
E 147 275 1 
E 147 358 6 
E 147 486 9 
E 148 158 2 
E 148 220 4 
E 148 281 6 
E 148 304 4 
E 148 342 8 
E 148 354 8 
E 148 464 3 
E 149 162 4 
E 149 230 4 
E 149 361 2 
E 149 368 10 
E 149 380 7 
E 149 416 1 
E 149 461 1 
E 150 267 2 
E 150 349 2 
E 150 467 8 
E 150 473 2 
E 151 181 5 
E 151 247 4 
E 151 306 7 
E 151 320 4 
E 151 371 7 
E 151 445 3 
E 151 476 6 
E 152 175 10 
E 152 229 4 
E 152 292 8 
E 152 329 5 
E 152 392 3 
E 152 461 4 
E 153 162 9 
E 153 192 10 
E 153 209 4 
E 153 213 3 
E 153 279 7 
E 153 403 3 
E 153 463 2 
E 154 170 2 
E 154 195 2 
E 154 202 9 
E 154 373 6 
E 155 212 4 
E 155 219 9 
E 155 251 9 
E 155 271 4 
E 155 290 3 
E 155 383 6 
E 155 392 9 
E 155 418 3 
E 155 440 10 
E 156 191 2 
E 156 223 8 
E 156 229 4 
E 156 287 8 
E 156 312 5 
E 156 332 5 
E 156 454 6 
E 157 231 5 
E 157 276 9 
E 157 291 4 
E 157 316 3 
E 157 362 7 
E 157 376 2 
E 157 406 10 
E 157 417 4 
E 158 193 6 
E 158 218 1 
E 158 423 1 
E 158 435 8 
E 159 253 5 
E 159 327 1 
E 159 433 1 
E 160 169 5 
E 160 252 6 
E 160 270 3 
E 160 377 3 
E 161 183 4 
E 161 199 10 
E 161 261 2 
E 161 295 1 
E 162 284 2 
E 162 313 7 
E 162 316 10 
E 162 327 1 
E 162 335 5 
E 162 450 8 
E 163 230 6 
E 163 337 7 
E 163 346 3 
E 163 389 8 
E 163 413 4 
E 163 482 3 
E 164 175 4 
E 164 264 5 
E 164 287 10 
E 164 315 3 
E 164 358 2 
E 164 449 9 
E 164 455 6 
E 164 493 7 
E 165 202 7 
E 165 231 10 
E 165 251 3 
E 165 256 2 
E 165 260 2 
E 165 302 2 
E 165 342 10 
E 165 366 10 
E 165 386 2 
E 165 467 9 
E 166 246 4 
E 166 262 5 
E 166 390 1 
E 166 433 6 
E 166 466 6 
E 166 494 2 
E 166 499 3 
E 167 197 10 
E 167 217 7 
E 167 299 9 
E 167 352 9 
E 167 385 6 
E 167 416 5 
E 167 439 8 
E 168 276 9 
E 168 289 2 
E 168 372 5 
E 168 415 7 
E 168 440 10 
E 168 494 6 
E 169 205 2 
E 169 328 6 
E 169 331 9 
E 169 446 9 
E 169 481 6 
E 170 182 10 
E 170 206 6 
E 170 254 6 
E 170 342 8 
E 170 346 1 
E 170 369 8 
E 171 240 6 
E 171 492 1 
E 172 175 10 
E 172 247 1 
E 172 330 3 
E 172 376 4 
E 172 483 7 
E 172 499 10 
E 173 228 7 
E 173 272 10 
E 173 281 8 
E 173 310 4 
E 173 311 6 
E 173 334 2 
E 173 351 4 
E 173 370 4 
E 173 394 4 
E 174 304 2 
E 174 352 9 
E 174 421 3 
E 174 434 2 
E 175 225 9 
E 175 236 10 
E 175 275 8 
E 175 279 6 
E 175 328 6 
E 175 409 6 
E 176 201 5 
E 176 209 10 
E 176 267 4 
E 176 298 6 
E 176 308 10 
E 176 385 2 
E 176 397 8 
E 176 401 7 
E 176 457 8 
E 177 260 5 
E 177 360 9 
E 177 361 6 
E 177 370 7 
E 177 388 4 
E 177 407 1 
E 177 438 4 
E 177 450 4 
E 177 494 2 
E 178 260 6 
E 178 315 10 
E 178 323 8 
E 178 334 1 
E 178 404 2 
E 178 417 6 
E 178 423 6 
E 179 193 10 
E 179 198 7 
E 179 211 6 
E 179 281 4 
E 179 330 1 
E 179 403 5 
E 179 462 6 
E 179 468 2 
E 180 217 5 
E 180 233 5 
E 180 351 9 
E 180 378 4 
E 180 417 5 
E 180 493 4 
E 181 205 10 
E 181 233 2 
E 181 276 3 
E 181 365 5 
E 181 393 10 
E 181 435 7 
E 181 464 5 
E 181 498 9 
E 182 189 8 
E 182 217 4 
E 182 219 1 
E 182 241 7 
E 182 284 6 
E 182 430 3 
E 182 443 8 
E 183 189 4 
E 183 213 7 
E 183 282 3 
E 183 288 6 
E 183 298 7 
E 183 309 6 
E 183 339 9 
E 183 344 4 
E 183 347 1 
E 183 393 2 
E 183 450 7 
E 184 245 3 
E 184 319 10 
E 184 365 8 
E 184 450 8 
E 185 246 6 
E 185 264 7 
E 185 340 2 
E 185 419 9 
E 186 190 6 
E 186 208 9 
E 186 263 8 
E 186 309 1 
E 186 334 2 
E 186 419 3 
E 186 464 2 
E 186 469 8 
E 187 210 6 
E 187 232 8 
E 187 268 4 
E 187 307 4 
E 187 417 7 
E 187 471 7 
E 187 483 10 
E 188 218 5 
E 188 257 7 
E 188 312 3 
E 188 342 7 
E 188 380 2 
E 188 394 10 
E 188 417 4 
E 189 228 4 
E 189 275 7 
E 189 283 1 
E 189 365 9 
E 189 377 5 
E 189 411 6 
E 189 442 6 
E 190 194 3 
E 190 243 5 
E 190 317 4 
E 190 356 6 
E 190 413 6 
E 191 277 6 
E 191 289 2 
E 191 377 6 
E 191 410 9 
E 191 413 1 
E 192 208 5 
E 192 327 6 
E 192 397 8 
E 192 440 8 
E 192 442 10 
E 192 473 6 
E 192 498 3 
E 193 226 9 
E 193 231 10 
E 193 236 1 
E 193 460 5 
E 193 480 3 
E 194 222 4 
E 194 236 9 
E 194 303 2 
E 194 367 10 
E 194 417 10 
E 194 469 6 
E 194 475 4 
E 195 259 4 
E 195 393 2 
E 195 453 1 
E 195 458 1 
E 195 491 7 
E 196 338 5 
E 196 388 2 
E 196 403 8 
E 196 470 2 
E 196 480 1 
E 196 483 8 
E 197 224 8 
E 197 249 5 
E 197 281 9 
E 197 306 1 
E 197 378 7 
E 197 407 6 
E 197 442 10 
E 197 464 4 
E 198 200 10 
E 198 274 3 
E 198 332 6 
E 198 338 8 
E 199 210 6 
E 199 277 5 
E 199 467 8 
E 199 474 5 
E 200 237 3 
E 200 243 2 
E 200 247 4 
E 200 282 3 
E 200 360 7 
E 200 365 5 
E 200 411 5 
E 200 414 10 
E 200 427 8 
E 200 487 4 
E 200 500 10 
E 201 217 6 
E 201 325 1 
E 201 457 9 
E 201 459 4 
E 201 493 1 
E 202 303 3 
E 202 311 4 
E 202 371 7 
E 202 386 2 
E 202 406 1 
E 202 442 7 
E 202 459 4 
E 202 465 3 
E 202 492 1 
E 203 280 6 
E 203 304 2 
E 203 321 1 
E 203 404 4 
E 203 409 8 
E 204 226 1 
E 204 265 6 
E 204 325 4 
E 204 337 7 
E 204 338 1 
E 204 353 4 
E 204 359 5 
E 204 389 9 
E 204 392 4 
E 204 462 2 
E 205 237 1 
E 205 239 10 
E 205 242 3 
E 205 329 3 
E 205 408 1 
E 205 463 1 
E 205 494 7 
E 206 290 6 
E 206 298 2 
E 206 372 7 
E 206 412 5 
E 206 478 4 
E 207 354 7 
E 207 356 5 
E 207 497 1 
E 208 237 6 
E 208 255 5 
E 208 284 8 
E 208 449 1 
E 208 489 10 
E 208 491 9 
E 209 246 2 
E 209 349 8 
E 209 361 5 
E 209 368 8 
E 209 400 10 
E 210 251 2 
E 210 255 1 
E 210 338 2 
E 210 398 2 
E 211 228 7 
E 211 252 5 
E 211 290 4 
E 211 500 3 
E 212 237 6 
E 212 308 3 
E 212 309 9 
E 212 362 3 
E 212 384 7 
E 212 447 1 
E 213 405 8 
E 213 449 9 
E 213 452 9 
E 214 249 8 
E 214 265 7 
E 215 219 4 
E 215 306 7 
E 215 338 8 
E 215 341 9 
E 215 356 2 
E 215 377 6 
E 215 389 9 
E 215 403 6 
E 216 297 2 
E 216 327 3 
E 217 228 9 
E 217 252 10 
E 217 289 1 
E 217 305 2 
E 217 371 8 
E 217 372 9 
E 217 417 6 
E 217 441 8 
E 217 449 7 
E 217 461 1 
E 218 236 6 
E 218 269 8 
E 218 285 6 
E 218 306 4 
E 218 319 1 
E 218 344 9 
E 218 431 7 
E 219 366 7 
E 219 376 2 
E 219 408 8 
E 219 414 8 
E 219 454 10 
E 219 458 4 
E 220 240 2 
E 220 323 6 
E 220 348 7 
E 220 379 3 
E 220 454 5 
E 220 467 8 
E 220 500 6 
E 221 279 3 
E 221 342 6 
E 221 452 5 
E 221 455 10 
E 221 484 5 
E 222 388 2 
E 222 495 5 
E 223 244 3 
E 223 245 4 
E 223 257 3 
E 223 362 4 
E 223 429 10 
E 223 478 7 
E 224 266 8 
E 224 270 9 
E 224 271 3 
E 224 354 10 
E 224 399 2 
E 224 485 4 
E 225 251 4 
E 225 308 6 
E 225 321 3 
E 225 373 1 
E 225 380 5 
E 225 404 10 
E 225 439 2 
E 226 228 7 
E 226 247 6 
E 226 295 3 
E 226 301 9 
E 226 312 3 
E 226 355 2 
E 226 357 5 
E 226 400 7 
E 226 401 3 
E 226 422 8 
E 227 232 10 
E 227 263 10 
E 227 293 1 
E 227 387 1 
E 227 390 10 
E 227 490 5 
E 228 279 7 
E 228 379 7 
E 228 430 8 
E 228 431 6 
E 228 450 2 
E 229 317 10 
E 229 333 7 
E 229 366 2 
E 229 461 1 
E 229 498 8 
E 230 291 9 
E 230 399 2 
E 230 478 10 
E 231 265 2 
E 231 274 3 
E 231 342 1 
E 231 418 6 
E 231 423 1 
E 231 440 4 
E 232 277 7 
E 232 326 10 
E 232 344 8 
E 232 396 1 
E 233 237 3 
E 233 262 4 
E 233 273 8 
E 233 301 1 
E 233 397 3 
E 233 420 3 
E 233 442 8 
E 233 464 9 
E 234 237 3 
E 234 246 7 
E 234 314 2 
E 234 351 7 
E 234 368 7 
E 235 240 4 
E 235 302 10 
E 235 315 9 
E 235 370 9 
E 236 279 6 
E 236 343 3 
E 236 427 5 
E 236 449 2 
E 237 278 3 
E 237 307 6 
E 237 319 1 
E 237 375 1 
E 237 397 8 
E 237 409 10 
E 237 462 9 
E 238 341 5 
E 238 378 4 
E 238 434 9 
E 239 263 7 
E 239 295 8 
E 239 370 7 
E 239 412 10 
E 239 420 6 
E 239 483 8 
E 240 246 9 
E 240 274 1 
E 240 440 4 
E 240 445 8 
E 240 463 1 
E 240 464 6 
E 241 259 8 
E 241 275 1 
E 241 349 1 
E 241 478 3 
E 242 249 9 
E 243 252 9 
E 243 271 4 
E 243 304 1 
E 243 330 8 
E 243 375 10 
E 243 423 1 
E 243 499 4 
E 244 255 8 
E 244 351 9 
E 244 386 4 
E 244 397 4 
E 244 433 8 
E 244 472 6 
E 245 266 3 
E 245 338 6 
E 245 404 9 
E 246 287 9 
E 246 310 6 
E 246 362 9 
E 246 454 8 
E 247 310 8 
E 247 353 9 
E 247 404 6 
E 247 414 2 
E 248 292 1 
E 248 319 2 
E 248 333 4 
E 248 345 3 
E 248 353 5 
E 248 354 4 
E 248 496 5 
E 249 292 9 
E 249 294 2 
E 249 465 7 
E 250 428 9 
E 250 438 10 
E 250 460 7 
E 251 289 5 
E 251 300 4 
E 251 407 6 
E 251 410 5 
E 251 452 9 
E 252 356 4 
E 252 396 4 
E 252 476 5 
E 253 312 8 
E 253 350 5 
E 253 388 6 
E 253 410 5 
E 254 264 4 
E 254 286 3 
E 254 403 7 
E 254 426 6 
E 254 454 5 
E 255 279 9 
E 255 378 1 
E 255 400 3 
E 255 419 8 
E 255 423 1 
E 256 269 6 
E 256 295 7 
E 256 331 4 
E 256 337 3 
E 256 378 5 
E 256 398 5 
E 256 440 5 
E 256 445 7 
E 256 467 3 
E 257 278 8 
E 257 296 2 
E 257 344 1 
E 257 357 9 
E 257 371 5 
E 257 465 8 
E 257 473 8 
E 258 264 9 
E 258 330 8 
E 258 419 7 
E 258 472 1 
E 259 311 10 
E 259 323 9 
E 259 337 1 
E 259 351 2 
E 259 400 3 
E 259 416 4 
E 259 456 3 
E 259 477 4 
E 260 312 8 
E 261 262 4 
E 261 281 10 
E 261 285 2 
E 261 355 7 
E 261 384 3 
E 261 401 8 
E 261 409 10 
E 261 430 6 
E 261 444 3 
E 261 448 7 
E 262 321 3 
E 262 344 5 
E 262 437 7 
E 262 452 3 
E 262 470 1 
E 263 277 1 
E 263 281 4 
E 263 332 6 
E 263 410 5 
E 264 276 1 
E 264 282 5 
E 264 354 7 
E 264 403 7 
E 265 317 8 
E 265 327 4 
E 265 382 7 
E 266 326 4 
E 266 423 2 
E 266 450 9 
E 266 473 7 
E 267 347 10 
E 267 413 1 
E 267 424 2 
E 267 443 10 
E 267 459 10 
E 267 499 5 
E 268 270 3 
E 268 391 4 
E 268 470 8 
E 268 490 6 
E 269 275 5 
E 269 279 9 
E 269 366 2 
E 269 425 5 
E 269 483 2 
E 269 489 6 
E 270 307 10 
E 270 396 4 
E 270 451 6 
E 271 303 8 
E 271 308 2 
E 271 365 9 
E 271 434 9 
E 271 469 7 
E 271 497 7 
E 272 314 6 
E 272 320 9 
E 272 327 9 
E 272 357 3 
E 273 339 1 
E 273 389 2 
E 273 474 10 
E 274 282 4 
E 274 459 2 
E 274 490 4 
E 275 306 6 
E 275 317 6 
E 275 357 3 
E 275 402 1 
E 276 313 10 
E 276 381 10 
E 278 348 5 
E 278 491 1 
E 278 496 6 
E 278 500 5 
E 279 310 4 
E 279 332 10 
E 279 347 3 
E 279 352 3 
E 279 388 2 
E 279 416 7 
E 279 481 1 
E 280 335 9 
E 280 364 10 
E 280 391 2 
E 280 441 9 
E 280 467 3 
E 281 287 5 
E 281 313 10 
E 281 360 7 
E 281 384 8 
E 281 402 4 
E 281 403 1 
E 282 358 8 
E 282 367 4 
E 282 376 5 
E 282 453 7 
E 282 481 8 
E 283 310 6 
E 284 306 6 
E 284 327 10 
E 284 380 7 
E 284 484 9 
E 284 492 10 
E 285 318 6 
E 285 321 2 
E 285 328 6 
E 285 377 4 
E 285 387 7 
E 285 484 3 
E 286 338 4 
E 286 455 6 
E 286 487 7 
E 287 307 6 
E 287 414 9 
E 287 424 4 
E 287 448 9 
E 288 292 2 
E 288 323 8 
E 288 352 3 
E 288 353 8 
E 288 376 7 
E 288 378 5 
E 289 299 7 
E 289 343 9 
E 289 399 1 
E 289 432 8 
E 289 488 4 
E 290 419 8 
E 290 423 8 
E 291 369 6 
E 292 293 9 
E 292 346 9 
E 292 347 6 
E 292 417 1 
E 293 354 6 
E 293 467 9 
E 293 479 3 
E 294 349 7 
E 294 375 2 
E 294 414 4 
E 294 441 10 
E 294 465 5 
E 295 414 2 
E 295 416 3 
E 295 428 10 
E 295 455 9 
E 296 299 3 
E 296 351 5 
E 296 361 10 
E 296 405 3 
E 296 433 4 
E 296 461 1 
E 297 304 3 
E 297 328 4 
E 297 364 10 
E 297 399 9 
E 298 324 1 
E 298 355 4 
E 298 373 2 
E 298 392 5 
E 298 395 1 
E 298 434 4 
E 298 444 2 
E 298 466 1 
E 298 486 5 
E 299 307 6 
E 299 378 8 
E 299 396 9 
E 299 441 5 
E 299 460 4 
E 300 321 8 
E 300 329 10 
E 300 340 3 
E 300 405 9 
E 300 474 10 
E 301 321 7 
E 301 387 1 
E 301 415 3 
E 301 435 6 
E 301 484 4 
E 302 327 5 
E 302 423 3 
E 302 482 1 
E 303 328 3 
E 303 421 10 
E 303 428 7 
E 304 319 1 
E 304 491 10 
E 304 496 2 
E 305 396 9 
E 306 458 6 
E 307 345 8 
E 307 493 1 
E 308 311 1 
E 308 359 6 
E 308 397 2 
E 308 425 9 
E 308 432 5 
E 308 443 6 
E 308 484 7 
E 309 328 8 
E 309 462 9 
E 310 323 7 
E 310 409 5 
E 310 412 5 
E 310 455 8 
E 310 477 4 
E 310 490 7 
E 311 386 8 
E 312 314 3 
E 312 410 8 
E 312 419 5 
E 312 500 5 
E 313 321 1 
E 313 323 7 
E 313 336 2 
E 313 357 3 
E 313 420 9 
E 313 454 10 
E 313 463 9 
E 314 318 3 
E 314 377 1 
E 314 382 8 
E 314 393 6 
E 314 430 7 
E 314 466 4 
E 314 490 10 
E 314 496 10 
E 315 361 4 
E 315 444 1 
E 315 487 6 
E 315 489 4 
E 316 428 3 
E 317 359 4 
E 317 404 3 
E 317 426 10 
E 318 348 2 
E 318 397 2 
E 319 354 1 
E 319 419 9 
E 319 448 2 
E 319 460 9 
E 319 478 2 
E 320 367 8 
E 321 337 6 
E 321 388 1 
E 321 400 4 
E 321 407 8 
E 321 425 9 
E 322 403 9 
E 322 425 7 
E 322 488 4 
E 323 399 10 
E 324 350 6 
E 324 447 3 
E 325 407 2 
E 326 333 10 
E 326 365 6 
E 326 496 9 
E 327 336 1 
E 327 361 8 
E 327 380 5 
E 327 468 4 
E 328 343 9 
E 329 350 5 
E 329 362 8 
E 329 406 5 
E 329 408 1 
E 330 419 3 
E 330 462 1 
E 331 333 7 
E 331 335 2 
E 331 339 5 
E 331 340 3 
E 331 397 7 
E 331 480 3 
E 332 335 2 
E 332 337 7 
E 332 339 4 
E 332 345 7 
E 332 394 9 
E 332 411 6 
E 332 427 5 
E 333 422 4 
E 334 338 1 
E 334 482 5 
E 334 484 4 
E 334 490 8 
E 335 384 10 
E 335 390 5 
E 335 466 7 
E 336 350 2 
E 336 418 1 
E 336 441 9 
E 336 451 10 
E 336 471 9 
E 337 359 9 
E 337 413 8 
E 337 420 7 
E 337 431 7 
E 337 457 3 
E 338 355 3 
E 338 407 6 
E 338 437 1 
E 338 439 2 
E 338 455 6 
E 338 472 7 
E 339 366 5 
E 339 412 9 
E 339 444 3 
E 340 365 10 
E 340 402 2 
E 341 446 3 
E 341 447 1 
E 342 405 4 
E 343 371 2 
E 344 435 3 
E 344 462 1 
E 345 356 5 
E 345 424 8 
E 346 369 5 
E 346 378 5 
E 346 382 6 
E 346 439 10 
E 346 454 4 
E 346 497 3 
E 347 361 1 
E 347 363 10 
E 347 450 4 
E 348 427 8 
E 349 364 2 
E 349 428 6 
E 349 483 4 
E 349 495 8 
E 350 415 7 
E 350 451 3 
E 351 366 7 
E 351 386 1 
E 351 412 2 
E 351 426 10 
E 351 477 6 
E 352 356 10 
E 352 426 10 
E 352 493 9 
E 354 407 10 
E 355 373 7 
E 355 399 9 
E 356 420 2 
E 356 453 6 
E 356 491 3 
E 357 453 9 
E 358 494 2 
E 359 393 8 
E 359 401 5 
E 359 418 2 
E 360 398 2 
E 360 409 7 
E 360 464 9 
E 361 396 8 
E 361 411 9 
E 361 419 4 
E 361 450 5 
E 361 479 7 
E 361 480 5 
E 361 490 6 
E 362 400 8 
E 363 399 10 
E 363 461 4 
E 364 402 5 
E 364 445 5 
E 364 472 7 
E 364 484 2 
E 365 384 9 
E 365 389 9 
E 365 409 1 
E 365 438 3 
E 366 398 2 
E 366 407 1 
E 367 370 9 
E 367 382 6 
E 367 416 4 
E 367 474 7 
E 367 495 8 
E 368 391 8 
E 368 423 10 
E 368 433 5 
E 369 385 1 
E 369 401 2 
E 369 405 5 
E 370 380 3 
E 370 396 9 
E 370 433 4 
E 371 473 8 
E 371 496 4 
E 372 426 1 
E 372 462 3 
E 373 396 5 
E 373 477 9 
E 374 397 4 
E 374 408 10 
E 374 454 4 
E 374 471 7 
E 375 381 10 
E 375 422 10 
E 375 469 9 
E 376 391 6 
E 376 458 6 
E 377 396 7 
E 377 484 3 
E 377 489 4 
E 377 497 3 
E 378 393 2 
E 378 466 7 
E 378 489 8 
E 379 396 3 
E 380 445 8 
E 380 458 5 
E 380 492 4 
E 381 450 6 
E 382 408 8 
E 382 450 1 
E 382 460 8 
E 382 499 6 
E 383 428 2 
E 383 479 9 
E 384 411 5 
E 385 386 1 
E 385 410 7 
E 385 435 6 
E 385 443 5 
E 385 482 5 
E 386 392 1 
E 386 425 7 
E 386 494 5 
E 387 435 7 
E 388 468 9 
E 388 500 9 
E 389 466 2 
E 389 491 10 
E 390 400 2 
E 391 463 10 
E 391 465 5 
E 392 431 2 
E 392 447 1 
E 392 458 10 
E 393 402 8 
E 394 399 8 
E 394 446 2 
E 394 465 2 
E 394 483 4 
E 395 421 3 
E 395 474 4 
E 395 487 7 
E 395 499 10 
E 396 404 4 
E 398 415 9 
E 398 427 1 
E 400 410 2 
E 400 416 9 
E 400 421 9 
E 400 457 8 
E 401 422 10 
E 402 451 7 
E 403 480 7 
E 404 434 4 
E 405 409 4 
E 405 420 4 
E 405 486 3 
E 406 454 3 
E 406 475 2 
E 406 488 5 
E 407 422 4 
E 407 446 2 
E 407 488 8 
E 408 428 6 
E 408 462 10 
E 408 490 5 
E 410 412 4 
E 410 419 2 
E 410 454 9 
E 410 465 7 
E 411 459 2 
E 411 494 5 
E 412 439 6 
E 412 452 2 
E 412 472 8 
E 412 493 2 
E 413 415 3 
E 414 480 4 
E 415 428 8 
E 415 492 7 
E 416 418 7 
E 416 424 2 
E 417 420 10 
E 417 436 8 
E 418 430 8 
E 418 446 4 
E 419 447 2 
E 420 446 9 
E 420 460 7 
E 420 466 2 
E 420 476 9 
E 421 431 6 
E 421 462 4 
E 421 489 5 
E 423 430 1 
E 423 496 1 
E 424 457 1 
E 425 463 8 
E 425 472 1 
E 425 489 1 
E 426 461 1 
E 426 483 1 
E 427 432 1 
E 427 480 5 
E 430 485 8 
E 431 485 1 
E 433 494 9 
E 434 449 9 
E 436 479 8 
E 437 460 8 
E 439 471 5 
E 439 485 6 
E 441 459 6 
E 441 461 3 
E 441 471 2 
E 441 479 3 
E 442 492 2 
E 443 492 2 
E 443 499 6 
E 444 448 5 
E 445 453 6 
E 445 478 5 
E 446 481 7 
E 447 483 9 
E 448 459 9 
E 450 489 5 
E 451 454 9 
E 452 463 2 
E 452 484 6 
E 453 464 5 
E 453 486 3 
E 453 488 1 
E 454 471 10 
E 454 495 4 
E 455 473 10 
E 455 498 8 
E 456 462 8 
E 456 471 2 
E 456 498 10 
E 457 461 5 
E 459 500 1 
E 460 495 2 
E 461 478 2 
E 463 488 6 
E 465 480 6 
E 467 475 6 
E 470 476 5 
E 470 499 10 
E 471 485 4 
E 472 494 1 
E 472 498 10 
E 474 495 3 
E 479 481 1 
E 479 486 9 
E 479 500 9 
E 480 489 1 
E 482 500 5 
E 483 484 7 
E 485 491 6 
E 485 494 9 
E 487 495 3 
E 488 494 6 
E 489 490 9 
E 489 495 2 
E 493 500 2 
E 494 495 5 
END 

SECTION ProfitableVertices 
ProfitableVertices 83 
PV 1 86
PV 5 57
PV 29 15
PV 30 79
PV 32 70
PV 34 94
PV 40 74
PV 43 85
PV 46 74
PV 50 97
PV 51 34
PV 59 65
PV 66 53
PV 82 24
PV 83 6
PV 99 79
PV 106 74
PV 109 66
PV 111 11
PV 124 72
PV 134 55
PV 147 4
PV 150 59
PV 151 19
PV 157 50
PV 163 26
PV 172 23
PV 178 33
PV 179 43
PV 180 73
PV 185 23
PV 210 33
PV 213 97
PV 215 47
PV 224 54
PV 229 69
PV 242 34
PV 246 55
PV 252 93
PV 253 41
PV 257 63
PV 264 70
PV 271 74
PV 280 8
PV 284 24
PV 298 9
PV 311 92
PV 320 84
PV 325 78
PV 328 75
PV 333 62
PV 339 77
PV 341 18
PV 342 71
PV 347 77
PV 353 97
PV 356 94
PV 360 16
PV 361 34
PV 364 51
PV 365 33
PV 371 63
PV 374 74
PV 398 97
PV 402 56
PV 403 86
PV 405 71
PV 409 63
PV 414 58
PV 425 66
PV 426 97
PV 437 45
PV 443 26
PV 447 29
PV 453 4
PV 457 8
PV 461 65
PV 471 22
PV 478 29
PV 483 32
PV 487 12
PV 494 88
PV 499 19
END 

EOF 
